Traveling Salesman Problem/TSP_generados/Aleatorio1621103646_17.tsp
NAME: Aleatorio1621103646_17.tsp
COMMENT: Randomly generated scenario
TYPE: TSP
DIMENSION: 17
EDGE_WEIGHT_TYPE: ATT
NODE_COORD_SECTION
1 0.8 21.62
2 28.85 17.91
3 20.26 33.23
4 7.22 26.35
5 24.92 13.18
6 21.16 20.52
7 32.34 23.2
8 28.71 35.2
9 1.89 22.31
10 21.32 34.19
11 10.98 33.56
12 45.85 15.67
13 34.79 14.0
14 26.84 14.38
15 10.34 39.08
16 38.01 13.11
17 44.19 12.51
