Traveling Salesman Problem/TSP_generados/Aleatorio1621103646_17.opt.tour
NAME: Aleatorio1621103646_17.opt.tour
COMMENT: Optimal solution for Aleatorio1621103646_17 (125.26934063278316)
TYPE: TOUR
DIMENSION: 17
TOUR_SECTION
1 6 5 14 2 13 16 17 12 7 8 10 3 15 11 4 9
-1
EOF
